Maximize
  - 4.7297710697277 edge_0_2_0_0 - 2.934496297735 edge_0_3_0_0
   - 3.2776401473108 edge_0_4_0_0 - 5.037927782640501 edge_0_7_0_0
   - 4.12196 edge_0_9_0_0 - 6.0025278153816 edge_0_10_0_0
   - 4.77264 edge_0_11_0_0 - 4.9555865991212 edge_0_15_0_0
   - 5.5968701596434 edge_0_16_0_0 + 0.5598206569935952 edge_2_3_0_0
   + 0.5931379175295604 edge_2_4_0_0 + 0.5705618703442831 edge_2_5_0_0
   + 0.5568992257842219 edge_2_6_0_0 - 0.0187502872148027 edge_2_7_0_0
   - 0.6413540066313457 edge_2_8_0_0 - 0.87696900842379 edge_2_11_0_0
   + 2.848615164691096 edge_3_2_0_0 + 2.036442521758255 edge_3_4_0_0
   + 2.285268676397894 edge_3_5_0_0 + 3.588077713264814 edge_3_6_0_0
   + 2.019814129142409 edge_3_7_0_0 + 1.618010147301639 edge_3_8_0_0
   - 0.415242400925 edge_3_9_0_0 + 0.4913987588646452 edge_3_10_0_0
   - 0.5941141275125 edge_3_11_0_0 + 0.0339475915567216 edge_3_12_0_0
   - 1.157398680129745 edge_3_14_0_0 - 0.9132251323827217 edge_3_15_0_0
   - 1.032244352505654 edge_3_16_0_0 + 0.3415575986440185 edge_3_17_0_0
   - 2.153125725822144 edge_3_18_0_0 - 0.5060844530664631 edge_3_19_0_0
   - 1.855846037396 edge_3_20_0_0 + 0.3963476269830609 edge_3_21_0_0
   - 1.785677214366361 edge_3_22_0_0 + 2.850630821166907 edge_3_23_0_0
   + 1.301990278899733 edge_4_2_0_0 + 1.53530364931685 edge_4_3_0_0
   + 1.646931878156387 edge_4_5_0_0 + 1.077723570914892 edge_4_6_0_0
   + 0.4521131465191711 edge_4_7_0_0 + 0.2854670422095906 edge_4_8_0_0
   - 0.42871434860908 edge_4_9_0_0 + 0.4293391424787552 edge_4_10_0_0
   + 0.34292690130228 edge_4_11_0_0 - 0.6433926033471615 edge_4_13_0_0
   + 0.0427102446869946 edge_4_15_0_0 + 0.0990740869721058 edge_4_16_0_0
   + 0.5771907054825461 edge_4_17_0_0 - 0.3859867105784528 edge_4_18_0_0
   - 1.5897765955772 edge_4_20_0_0 - 0.2445528820096487 edge_4_21_0_0
   - 1.433209944221998 edge_4_22_0_0 - 0.2115847295356309 edge_4_23_0_0
   - 0.4640684632634759 edge_5_6_0_0 - 0.0501612702998522 edge_6_5_0_0
   + 0.0697249222758367 edge_6_7_0_0 - 0.36633304906748 edge_6_9_0_0
   - 0.0259227599312136 edge_7_2_0_0 - 0.6999351041692782 edge_7_3_0_0
   - 0.6258307410281008 edge_7_4_0_0 - 0.7676319239327865 edge_7_5_0_0
   + 0.1035814616152798 edge_7_6_0_0 + 2.351183029774212 edge_7_8_0_0
   + 0.92394392538932 edge_7_9_0_0 + 0.8035367341560951 edge_7_10_0_0
   + 0.54043161668606 edge_7_11_0_0 + 0.00231852654791083 edge_7_12_0_0
   - 0.1196174246223911 edge_7_14_0_0 - 0.0709979083666053 edge_7_15_0_0
   - 0.0834868337724934 edge_7_16_0_0 + 0.4124487897258459 edge_7_17_0_0
   - 1.37606327162861 edge_7_18_0_0 - 0.9330728851304301 edge_7_20_0_0
   + 0.3401524575980067 edge_7_21_0_0 - 1.012305474974568 edge_7_22_0_0
   + 0.5460185012503503 edge_7_23_0_0 - 0.2608999107010598 edge_8_7_0_0
   - 0.20699073482041 edge_8_9_0_0 - 0.3941334102755161 edge_8_10_0_0
   - 0.53283957517506 edge_8_11_0_0 - 1.0582363976696 edge_9_6_0_0
   - 0.84957525335661 edge_9_7_0_0 - 0.25241648204589 edge_9_8_0_0
   + 1.9054753594578 edge_9_10_0_0 + 0.332492 edge_9_11_0_0
   - 0.22348703712312 edge_9_12_0_0 - 0.1191079896149 edge_9_13_0_0
   - 0.38330364223068 edge_9_14_0_0 - 0.59726497440694 edge_9_15_0_0
   - 0.31515534515223 edge_9_16_0_0 + 1.1359443646386 edge_9_17_0_0
   - 0.71717642245312 edge_9_18_0_0 - 0.72460267975481 edge_9_19_0_0
   - 0.552838 edge_9_20_0_0 + 0.19023319171185 edge_9_21_0_0
   - 0.21254698724718 edge_9_22_0_0 + 0.7485495129411199 edge_9_23_0_0
   - 1.103621117051344 edge_10_2_0_0 - 1.388353329785711 edge_10_3_0_0
   - 0.8003525071497152 edge_10_4_0_0 - 0.7587952439557453 edge_10_5_0_0
   - 0.9995812206811452 edge_10_6_0_0 - 0.0597489802717802 edge_10_8_0_0
   + 1.9783179794334 edge_10_9_0_0 - 0.48221794428618 edge_10_11_0_0
   - 0.8483813401532938 edge_10_12_0_0 - 1.367105587608243 edge_10_16_0_0
   - 0.26423127656345 edge_11_2_0_0 - 1.272006721851 edge_11_3_0_0
   - 0.6448944858324001 edge_11_4_0_0 - 0.63958300555875 edge_11_5_0_0
   - 0.78526809473704 edge_11_6_0_0 - 0.39090427610454 edge_11_7_0_0
   - 0.1441828496179 edge_11_8_0_0 + 0.849321 edge_11_9_0_0
   + 0.99633027866928 edge_11_10_0_0 + 0.8311729396191599 edge_11_12_0_0
   + 0.8192630670294799 edge_11_13_0_0 + 0.5700040067211599 edge_11_14_0_0
   + 1.3556508628516 edge_11_15_0_0 + 2.1296413484412 edge_11_16_0_0
   + 1.9823223753927 edge_11_17_0_0 + 0.9360243885103999 edge_11_18_0_0
   + 0.47634 edge_11_20_0_0 + 1.1166723834497 edge_11_21_0_0
   + 0.27449998353 edge_11_22_0_0 + 0.4878128021958399 edge_11_23_0_0
   + 0.3762162859163611 edge_12_13_0_0 + 0.0857491897598015 edge_12_14_0_0
   + 0.255497154349013 edge_12_15_0_0 + 1.15526337338092 edge_12_16_0_0
   - 0.2502117517510153 edge_12_18_0_0 - 0.1255531893327816 edge_13_12_0_0
   + 0.2582976348084178 edge_13_14_0_0 - 1.06082129270327 edge_14_12_0_0
   + 0.0775037542482313 edge_14_13_0_0 + 0.099368059777067 edge_14_15_0_0
   - 0.4836938127619623 edge_14_16_0_0 + 0.2704397623882984 edge_14_17_0_0
   - 0.4468750283494192 edge_14_18_0_0 - 0.0831661021216686 edge_15_2_0_0
   - 0.6789529986749454 edge_15_3_0_0 - 0.603491833324668 edge_15_4_0_0
   - 0.4808247628147558 edge_15_5_0_0 - 0.4122800612025785 edge_15_6_0_0
   + 0.2598291028809231 edge_15_7_0_0 - 0.2248313346126311 edge_15_8_0_0
   - 0.11565522047856 edge_15_9_0_0 + 0.2437541976940743 edge_15_10_0_0
   + 0.14795200279678 edge_15_11_0_0 + 1.069681233550692 edge_15_12_0_0
   + 1.775211297992207 edge_15_13_0_0 + 1.665524184073338 edge_15_14_0_0
   + 1.228956107126009 edge_15_16_0_0 + 2.64505657137455 edge_15_17_0_0
   + 1.618752288982436 edge_15_18_0_0 - 0.0018140834411639 edge_15_19_0_0
   + 0.5046215988275 edge_15_20_0_0 + 1.582712296689921 edge_15_21_0_0
   + 0.259618234584105 edge_15_22_0_0 + 0.686880411191945 edge_15_23_0_0
   - 0.1390109076686791 edge_16_2_0_0 - 1.180077157165521 edge_16_3_0_0
   - 0.9193328085206426 edge_16_4_0_0 - 0.6299541036727664 edge_16_5_0_0
   - 0.3248149765643063 edge_16_7_0_0 - 0.5126813747539737 edge_16_8_0_0
   + 0.10878428674872 edge_16_9_0_0 + 0.1556349654686474 edge_16_10_0_0
   - 0.047636672982954 edge_16_11_0_0 + 2.47510542452019 edge_16_12_0_0
   + 2.831785390522636 edge_16_13_0_0 + 1.07073887027283 edge_16_14_0_0
   + 2.146190672794068 edge_16_15_0_0 + 1.615656674244706 edge_16_17_0_0
   + 1.155537782918749 edge_16_18_0_0 - 0.4709233734218023 edge_16_19_0_0
   + 0.5728662877459499 edge_16_20_0_0 + 1.311199578044245 edge_16_21_0_0
   + 0.3201274119199241 edge_16_22_0_0 + 0.1900284061855032 edge_16_23_0_0
   - 1.028799747892367 edge_18_2_0_0 - 1.407994816400928 edge_18_3_0_0
   - 1.073160140445312 edge_18_4_0_0 - 1.461736971089407 edge_18_5_0_0
   - 1.030849704679186 edge_18_8_0_0 - 0.080470726842227 edge_18_10_0_0
   - 0.6963890807867541 edge_18_12_0_0 + 0.3055078801257981 edge_18_13_0_0
   + 0.6566578859212485 edge_18_14_0_0 + 0.0811834322210348 edge_18_15_0_0
   + 0.8475291482882983 edge_18_17_0_0 + 0.5441880116382669 edge_18_19_0_0
   + 2.4495043240304 edge_18_20_0_0 + 1.306757143398706 edge_18_21_0_0
   + 0.9462550687046926 edge_18_22_0_0 + 0.5906717463991129 edge_18_23_0_0
   + 1.387903186534192 edge_19_21_0_0 - 0.1978411431175407 edge_19_22_0_0
   + 0.1365638036906 edge_20_14_0_0 - 0.21269412805509 edge_20_17_0_0
   + 0.56625984552032 edge_20_18_0_0 + 3.2634887716054 edge_20_19_0_0
   + 3.0399830732271 edge_20_21_0_0 + 1.5104399093736 edge_20_22_0_0
   + 0.8200290367984 edge_20_23_0_0 - 0.0851037153631772 edge_21_19_0_0
   - 0.56832984335974 edge_21_20_0_0 - 1.744810710498951 edge_22_2_0_0
   - 2.342126997761372 edge_22_3_0_0 - 1.649362410850449 edge_22_4_0_0
   + 0.6040330940868822 edge_22_19_0_0 - 0.28418098294914 edge_22_20_0_0
   + 0.3928889252359431 edge_22_23_0_0
Subject To
 one_parent_1: = 1
 consume_one_flow_unit_1: = 1
 one_parent_2: edge_0_2_0_0 + edge_3_2_0_0 + edge_4_2_0_0 + edge_7_2_0_0
   + edge_10_2_0_0 + edge_11_2_0_0 + edge_15_2_0_0 + edge_16_2_0_0
   + edge_18_2_0_0 + edge_22_2_0_0 = 1
 consume_one_flow_unit_2: flow_0_2_0_0 - flow_2_3_0_0 - flow_2_4_0_0
   - flow_2_5_0_0 - flow_2_6_0_0 - flow_2_7_0_0 - flow_2_8_0_0
   - flow_2_11_0_0 + flow_3_2_0_0 + flow_4_2_0_0 + flow_7_2_0_0
   + flow_10_2_0_0 + flow_11_2_0_0 + flow_15_2_0_0 + flow_16_2_0_0
   + flow_18_2_0_0 + flow_22_2_0_0 = 1
 one_parent_3: edge_0_3_0_0 + edge_2_3_0_0 + edge_4_3_0_0 + edge_7_3_0_0
   + edge_10_3_0_0 + edge_11_3_0_0 + edge_15_3_0_0 + edge_16_3_0_0
   + edge_18_3_0_0 + edge_22_3_0_0 = 1
 consume_one_flow_unit_3: flow_0_3_0_0 + flow_2_3_0_0 - flow_3_2_0_0
   - flow_3_4_0_0 - flow_3_5_0_0 - flow_3_6_0_0 - flow_3_7_0_0
   - flow_3_8_0_0 - flow_3_9_0_0 - flow_3_10_0_0 - flow_3_11_0_0
   - flow_3_12_0_0 - flow_3_14_0_0 - flow_3_15_0_0 - flow_3_16_0_0
   - flow_3_17_0_0 - flow_3_18_0_0 - flow_3_19_0_0 - flow_3_20_0_0
   - flow_3_21_0_0 - flow_3_22_0_0 - flow_3_23_0_0 + flow_4_3_0_0
   + flow_7_3_0_0 + flow_10_3_0_0 + flow_11_3_0_0 + flow_15_3_0_0
   + flow_16_3_0_0 + flow_18_3_0_0 + flow_22_3_0_0 = 1
 one_parent_4: edge_0_4_0_0 + edge_2_4_0_0 + edge_3_4_0_0 + edge_7_4_0_0
   + edge_10_4_0_0 + edge_11_4_0_0 + edge_15_4_0_0 + edge_16_4_0_0
   + edge_18_4_0_0 + edge_22_4_0_0 = 1
 consume_one_flow_unit_4: flow_0_4_0_0 + flow_2_4_0_0 + flow_3_4_0_0
   - flow_4_2_0_0 - flow_4_3_0_0 - flow_4_5_0_0 - flow_4_6_0_0
   - flow_4_7_0_0 - flow_4_8_0_0 - flow_4_9_0_0 - flow_4_10_0_0
   - flow_4_11_0_0 - flow_4_13_0_0 - flow_4_15_0_0 - flow_4_16_0_0
   - flow_4_17_0_0 - flow_4_18_0_0 - flow_4_20_0_0 - flow_4_21_0_0
   - flow_4_22_0_0 - flow_4_23_0_0 + flow_7_4_0_0 + flow_10_4_0_0
   + flow_11_4_0_0 + flow_15_4_0_0 + flow_16_4_0_0 + flow_18_4_0_0
   + flow_22_4_0_0 = 1
 one_parent_5: edge_2_5_0_0 + edge_3_5_0_0 + edge_4_5_0_0 + edge_6_5_0_0
   + edge_7_5_0_0 + edge_10_5_0_0 + edge_11_5_0_0 + edge_15_5_0_0
   + edge_16_5_0_0 + edge_18_5_0_0 = 1
 consume_one_flow_unit_5: flow_2_5_0_0 + flow_3_5_0_0 + flow_4_5_0_0
   - flow_5_6_0_0 + flow_6_5_0_0 + flow_7_5_0_0 + flow_10_5_0_0
   + flow_11_5_0_0 + flow_15_5_0_0 + flow_16_5_0_0 + flow_18_5_0_0 = 1
 one_parent_6: edge_2_6_0_0 + edge_3_6_0_0 + edge_4_6_0_0 + edge_5_6_0_0
   + edge_7_6_0_0 + edge_9_6_0_0 + edge_10_6_0_0 + edge_11_6_0_0
   + edge_15_6_0_0 = 1
 consume_one_flow_unit_6: flow_2_6_0_0 + flow_3_6_0_0 + flow_4_6_0_0
   + flow_5_6_0_0 - flow_6_5_0_0 - flow_6_7_0_0 - flow_6_9_0_0
   + flow_7_6_0_0 + flow_9_6_0_0 + flow_10_6_0_0 + flow_11_6_0_0
   + flow_15_6_0_0 = 1
 one_parent_7: edge_0_7_0_0 + edge_2_7_0_0 + edge_3_7_0_0 + edge_4_7_0_0
   + edge_6_7_0_0 + edge_8_7_0_0 + edge_9_7_0_0 + edge_11_7_0_0
   + edge_15_7_0_0 + edge_16_7_0_0 = 1
 consume_one_flow_unit_7: flow_0_7_0_0 + flow_2_7_0_0 + flow_3_7_0_0
   + flow_4_7_0_0 + flow_6_7_0_0 - flow_7_2_0_0 - flow_7_3_0_0
   - flow_7_4_0_0 - flow_7_5_0_0 - flow_7_6_0_0 - flow_7_8_0_0
   - flow_7_9_0_0 - flow_7_10_0_0 - flow_7_11_0_0 - flow_7_12_0_0
   - flow_7_14_0_0 - flow_7_15_0_0 - flow_7_16_0_0 - flow_7_17_0_0
   - flow_7_18_0_0 - flow_7_20_0_0 - flow_7_21_0_0 - flow_7_22_0_0
   - flow_7_23_0_0 + flow_8_7_0_0 + flow_9_7_0_0 + flow_11_7_0_0
   + flow_15_7_0_0 + flow_16_7_0_0 = 1
 one_parent_8: edge_2_8_0_0 + edge_3_8_0_0 + edge_4_8_0_0 + edge_7_8_0_0
   + edge_9_8_0_0 + edge_10_8_0_0 + edge_11_8_0_0 + edge_15_8_0_0
   + edge_16_8_0_0 + edge_18_8_0_0 = 1
 consume_one_flow_unit_8: flow_2_8_0_0 + flow_3_8_0_0 + flow_4_8_0_0
   + flow_7_8_0_0 - flow_8_7_0_0 - flow_8_9_0_0 - flow_8_10_0_0
   - flow_8_11_0_0 + flow_9_8_0_0 + flow_10_8_0_0 + flow_11_8_0_0
   + flow_15_8_0_0 + flow_16_8_0_0 + flow_18_8_0_0 = 1
 one_parent_9: edge_0_9_0_0 + edge_3_9_0_0 + edge_4_9_0_0 + edge_6_9_0_0
   + edge_7_9_0_0 + edge_8_9_0_0 + edge_10_9_0_0 + edge_11_9_0_0
   + edge_15_9_0_0 + edge_16_9_0_0 = 1
 consume_one_flow_unit_9: flow_0_9_0_0 + flow_3_9_0_0 + flow_4_9_0_0
   + flow_6_9_0_0 + flow_7_9_0_0 + flow_8_9_0_0 - flow_9_6_0_0
   - flow_9_7_0_0 - flow_9_8_0_0 - flow_9_10_0_0 - flow_9_11_0_0
   - flow_9_12_0_0 - flow_9_13_0_0 - flow_9_14_0_0 - flow_9_15_0_0
   - flow_9_16_0_0 - flow_9_17_0_0 - flow_9_18_0_0 - flow_9_19_0_0
   - flow_9_20_0_0 - flow_9_21_0_0 - flow_9_22_0_0 - flow_9_23_0_0
   + flow_10_9_0_0 + flow_11_9_0_0 + flow_15_9_0_0 + flow_16_9_0_0 = 1
 one_parent_10: edge_0_10_0_0 + edge_3_10_0_0 + edge_4_10_0_0
   + edge_7_10_0_0 + edge_8_10_0_0 + edge_9_10_0_0 + edge_11_10_0_0
   + edge_15_10_0_0 + edge_16_10_0_0 + edge_18_10_0_0 = 1
 consume_one_flow_unit_10: flow_0_10_0_0 + flow_3_10_0_0 + flow_4_10_0_0
   + flow_7_10_0_0 + flow_8_10_0_0 + flow_9_10_0_0 - flow_10_2_0_0
   - flow_10_3_0_0 - flow_10_4_0_0 - flow_10_5_0_0 - flow_10_6_0_0
   - flow_10_8_0_0 - flow_10_9_0_0 - flow_10_11_0_0 - flow_10_12_0_0
   - flow_10_16_0_0 + flow_11_10_0_0 + flow_15_10_0_0 + flow_16_10_0_0
   + flow_18_10_0_0 = 1
 one_parent_11: edge_0_11_0_0 + edge_2_11_0_0 + edge_3_11_0_0
   + edge_4_11_0_0 + edge_7_11_0_0 + edge_8_11_0_0 + edge_9_11_0_0
   + edge_10_11_0_0 + edge_15_11_0_0 + edge_16_11_0_0 = 1
 consume_one_flow_unit_11: flow_0_11_0_0 + flow_2_11_0_0 + flow_3_11_0_0
   + flow_4_11_0_0 + flow_7_11_0_0 + flow_8_11_0_0 + flow_9_11_0_0
   + flow_10_11_0_0 - flow_11_2_0_0 - flow_11_3_0_0 - flow_11_4_0_0
   - flow_11_5_0_0 - flow_11_6_0_0 - flow_11_7_0_0 - flow_11_8_0_0
   - flow_11_9_0_0 - flow_11_10_0_0 - flow_11_12_0_0 - flow_11_13_0_0
   - flow_11_14_0_0 - flow_11_15_0_0 - flow_11_16_0_0 - flow_11_17_0_0
   - flow_11_18_0_0 - flow_11_20_0_0 - flow_11_21_0_0 - flow_11_22_0_0
   - flow_11_23_0_0 + flow_15_11_0_0 + flow_16_11_0_0 = 1
 one_parent_12: edge_3_12_0_0 + edge_7_12_0_0 + edge_9_12_0_0
   + edge_10_12_0_0 + edge_11_12_0_0 + edge_13_12_0_0 + edge_14_12_0_0
   + edge_15_12_0_0 + edge_16_12_0_0 + edge_18_12_0_0 = 1
 consume_one_flow_unit_12: flow_3_12_0_0 + flow_7_12_0_0 + flow_9_12_0_0
   + flow_10_12_0_0 + flow_11_12_0_0 - flow_12_13_0_0 - flow_12_14_0_0
   - flow_12_15_0_0 - flow_12_16_0_0 - flow_12_18_0_0 + flow_13_12_0_0
   + flow_14_12_0_0 + flow_15_12_0_0 + flow_16_12_0_0 + flow_18_12_0_0 = 1
 one_parent_13: edge_4_13_0_0 + edge_9_13_0_0 + edge_11_13_0_0
   + edge_12_13_0_0 + edge_14_13_0_0 + edge_15_13_0_0 + edge_16_13_0_0
   + edge_18_13_0_0 = 1
 consume_one_flow_unit_13: flow_4_13_0_0 + flow_9_13_0_0 + flow_11_13_0_0
   + flow_12_13_0_0 - flow_13_12_0_0 - flow_13_14_0_0 + flow_14_13_0_0
   + flow_15_13_0_0 + flow_16_13_0_0 + flow_18_13_0_0 = 1
 one_parent_14: edge_3_14_0_0 + edge_7_14_0_0 + edge_9_14_0_0
   + edge_11_14_0_0 + edge_12_14_0_0 + edge_13_14_0_0 + edge_15_14_0_0
   + edge_16_14_0_0 + edge_18_14_0_0 + edge_20_14_0_0 = 1
 consume_one_flow_unit_14: flow_3_14_0_0 + flow_7_14_0_0 + flow_9_14_0_0
   + flow_11_14_0_0 + flow_12_14_0_0 + flow_13_14_0_0 - flow_14_12_0_0
   - flow_14_13_0_0 - flow_14_15_0_0 - flow_14_16_0_0 - flow_14_17_0_0
   - flow_14_18_0_0 + flow_15_14_0_0 + flow_16_14_0_0 + flow_18_14_0_0
   + flow_20_14_0_0 = 1
 one_parent_15: edge_0_15_0_0 + edge_3_15_0_0 + edge_4_15_0_0
   + edge_7_15_0_0 + edge_9_15_0_0 + edge_11_15_0_0 + edge_12_15_0_0
   + edge_14_15_0_0 + edge_16_15_0_0 + edge_18_15_0_0 = 1
 consume_one_flow_unit_15: flow_0_15_0_0 + flow_3_15_0_0 + flow_4_15_0_0
   + flow_7_15_0_0 + flow_9_15_0_0 + flow_11_15_0_0 + flow_12_15_0_0
   + flow_14_15_0_0 - flow_15_2_0_0 - flow_15_3_0_0 - flow_15_4_0_0
   - flow_15_5_0_0 - flow_15_6_0_0 - flow_15_7_0_0 - flow_15_8_0_0
   - flow_15_9_0_0 - flow_15_10_0_0 - flow_15_11_0_0 - flow_15_12_0_0
   - flow_15_13_0_0 - flow_15_14_0_0 - flow_15_16_0_0 - flow_15_17_0_0
   - flow_15_18_0_0 - flow_15_19_0_0 - flow_15_20_0_0 - flow_15_21_0_0
   - flow_15_22_0_0 - flow_15_23_0_0 + flow_16_15_0_0 + flow_18_15_0_0 = 1
 one_parent_16: edge_0_16_0_0 + edge_3_16_0_0 + edge_4_16_0_0
   + edge_7_16_0_0 + edge_9_16_0_0 + edge_10_16_0_0 + edge_11_16_0_0
   + edge_12_16_0_0 + edge_14_16_0_0 + edge_15_16_0_0 = 1
 consume_one_flow_unit_16: flow_0_16_0_0 + flow_3_16_0_0 + flow_4_16_0_0
   + flow_7_16_0_0 + flow_9_16_0_0 + flow_10_16_0_0 + flow_11_16_0_0
   + flow_12_16_0_0 + flow_14_16_0_0 + flow_15_16_0_0 - flow_16_2_0_0
   - flow_16_3_0_0 - flow_16_4_0_0 - flow_16_5_0_0 - flow_16_7_0_0
   - flow_16_8_0_0 - flow_16_9_0_0 - flow_16_10_0_0 - flow_16_11_0_0
   - flow_16_12_0_0 - flow_16_13_0_0 - flow_16_14_0_0 - flow_16_15_0_0
   - flow_16_17_0_0 - flow_16_18_0_0 - flow_16_19_0_0 - flow_16_20_0_0
   - flow_16_21_0_0 - flow_16_22_0_0 - flow_16_23_0_0 = 1
 one_parent_17: edge_3_17_0_0 + edge_4_17_0_0 + edge_7_17_0_0
   + edge_9_17_0_0 + edge_11_17_0_0 + edge_14_17_0_0 + edge_15_17_0_0
   + edge_16_17_0_0 + edge_18_17_0_0 + edge_20_17_0_0 = 1
 consume_one_flow_unit_17: flow_3_17_0_0 + flow_4_17_0_0 + flow_7_17_0_0
   + flow_9_17_0_0 + flow_11_17_0_0 + flow_14_17_0_0 + flow_15_17_0_0
   + flow_16_17_0_0 + flow_18_17_0_0 + flow_20_17_0_0 = 1
 one_parent_18: edge_3_18_0_0 + edge_4_18_0_0 + edge_7_18_0_0
   + edge_9_18_0_0 + edge_11_18_0_0 + edge_12_18_0_0 + edge_14_18_0_0
   + edge_15_18_0_0 + edge_16_18_0_0 + edge_20_18_0_0 = 1
 consume_one_flow_unit_18: flow_3_18_0_0 + flow_4_18_0_0 + flow_7_18_0_0
   + flow_9_18_0_0 + flow_11_18_0_0 + flow_12_18_0_0 + flow_14_18_0_0
   + flow_15_18_0_0 + flow_16_18_0_0 - flow_18_2_0_0 - flow_18_3_0_0
   - flow_18_4_0_0 - flow_18_5_0_0 - flow_18_8_0_0 - flow_18_10_0_0
   - flow_18_12_0_0 - flow_18_13_0_0 - flow_18_14_0_0 - flow_18_15_0_0
   - flow_18_17_0_0 - flow_18_19_0_0 - flow_18_20_0_0 - flow_18_21_0_0
   - flow_18_22_0_0 - flow_18_23_0_0 + flow_20_18_0_0 = 1
 one_parent_19: edge_3_19_0_0 + edge_9_19_0_0 + edge_15_19_0_0
   + edge_16_19_0_0 + edge_18_19_0_0 + edge_20_19_0_0 + edge_21_19_0_0
   + edge_22_19_0_0 = 1
 consume_one_flow_unit_19: flow_3_19_0_0 + flow_9_19_0_0 + flow_15_19_0_0
   + flow_16_19_0_0 + flow_18_19_0_0 - flow_19_21_0_0 - flow_19_22_0_0
   + flow_20_19_0_0 + flow_21_19_0_0 + flow_22_19_0_0 = 1
 one_parent_20: edge_3_20_0_0 + edge_4_20_0_0 + edge_7_20_0_0
   + edge_9_20_0_0 + edge_11_20_0_0 + edge_15_20_0_0 + edge_16_20_0_0
   + edge_18_20_0_0 + edge_21_20_0_0 + edge_22_20_0_0 = 1
 consume_one_flow_unit_20: flow_3_20_0_0 + flow_4_20_0_0 + flow_7_20_0_0
   + flow_9_20_0_0 + flow_11_20_0_0 + flow_15_20_0_0 + flow_16_20_0_0
   + flow_18_20_0_0 - flow_20_14_0_0 - flow_20_17_0_0 - flow_20_18_0_0
   - flow_20_19_0_0 - flow_20_21_0_0 - flow_20_22_0_0 - flow_20_23_0_0
   + flow_21_20_0_0 + flow_22_20_0_0 = 1
 one_parent_21: edge_3_21_0_0 + edge_4_21_0_0 + edge_7_21_0_0
   + edge_9_21_0_0 + edge_11_21_0_0 + edge_15_21_0_0 + edge_16_21_0_0
   + edge_18_21_0_0 + edge_19_21_0_0 + edge_20_21_0_0 = 1
 consume_one_flow_unit_21: flow_3_21_0_0 + flow_4_21_0_0 + flow_7_21_0_0
   + flow_9_21_0_0 + flow_11_21_0_0 + flow_15_21_0_0 + flow_16_21_0_0
   + flow_18_21_0_0 + flow_19_21_0_0 + flow_20_21_0_0 - flow_21_19_0_0
   - flow_21_20_0_0 = 1
 one_parent_22: edge_3_22_0_0 + edge_4_22_0_0 + edge_7_22_0_0
   + edge_9_22_0_0 + edge_11_22_0_0 + edge_15_22_0_0 + edge_16_22_0_0
   + edge_18_22_0_0 + edge_19_22_0_0 + edge_20_22_0_0 = 1
 consume_one_flow_unit_22: flow_3_22_0_0 + flow_4_22_0_0 + flow_7_22_0_0
   + flow_9_22_0_0 + flow_11_22_0_0 + flow_15_22_0_0 + flow_16_22_0_0
   + flow_18_22_0_0 + flow_19_22_0_0 + flow_20_22_0_0 - flow_22_2_0_0
   - flow_22_3_0_0 - flow_22_4_0_0 - flow_22_19_0_0 - flow_22_20_0_0
   - flow_22_23_0_0 = 1
 one_parent_23: edge_3_23_0_0 + edge_4_23_0_0 + edge_7_23_0_0
   + edge_9_23_0_0 + edge_11_23_0_0 + edge_15_23_0_0 + edge_16_23_0_0
   + edge_18_23_0_0 + edge_20_23_0_0 + edge_22_23_0_0 = 1
 consume_one_flow_unit_23: flow_3_23_0_0 + flow_4_23_0_0 + flow_7_23_0_0
   + flow_9_23_0_0 + flow_11_23_0_0 + flow_15_23_0_0 + flow_16_23_0_0
   + flow_18_23_0_0 + flow_20_23_0_0 + flow_22_23_0_0 = 1
 root_flow: flow_0_2_0_0 + flow_0_3_0_0 + flow_0_4_0_0 + flow_0_7_0_0
   + flow_0_9_0_0 + flow_0_10_0_0 + flow_0_11_0_0 + flow_0_15_0_0
   + flow_0_16_0_0 = 23
 inactive_no_flow_0_2_0_0: flow_0_2_0_0 - 1000 edge_0_2_0_0 <= 0
 inactive_no_flow_0_3_0_0: flow_0_3_0_0 - 1000 edge_0_3_0_0 <= 0
 inactive_no_flow_0_4_0_0: flow_0_4_0_0 - 1000 edge_0_4_0_0 <= 0
 inactive_no_flow_0_7_0_0: flow_0_7_0_0 - 1000 edge_0_7_0_0 <= 0
 inactive_no_flow_0_9_0_0: flow_0_9_0_0 - 1000 edge_0_9_0_0 <= 0
 inactive_no_flow_0_10_0_0: flow_0_10_0_0 - 1000 edge_0_10_0_0 <= 0
 inactive_no_flow_0_11_0_0: flow_0_11_0_0 - 1000 edge_0_11_0_0 <= 0
 inactive_no_flow_0_15_0_0: flow_0_15_0_0 - 1000 edge_0_15_0_0 <= 0
 inactive_no_flow_0_16_0_0: flow_0_16_0_0 - 1000 edge_0_16_0_0 <= 0
 inactive_no_flow_2_3_0_0: flow_2_3_0_0 - 1000 edge_2_3_0_0 <= 0
 inactive_no_flow_2_4_0_0: flow_2_4_0_0 - 1000 edge_2_4_0_0 <= 0
 inactive_no_flow_2_5_0_0: flow_2_5_0_0 - 1000 edge_2_5_0_0 <= 0
 inactive_no_flow_2_6_0_0: flow_2_6_0_0 - 1000 edge_2_6_0_0 <= 0
 inactive_no_flow_2_7_0_0: flow_2_7_0_0 - 1000 edge_2_7_0_0 <= 0
 inactive_no_flow_2_8_0_0: flow_2_8_0_0 - 1000 edge_2_8_0_0 <= 0
 inactive_no_flow_2_11_0_0: flow_2_11_0_0 - 1000 edge_2_11_0_0 <= 0
 inactive_no_flow_3_2_0_0: flow_3_2_0_0 - 1000 edge_3_2_0_0 <= 0
 inactive_no_flow_3_4_0_0: flow_3_4_0_0 - 1000 edge_3_4_0_0 <= 0
 inactive_no_flow_3_5_0_0: flow_3_5_0_0 - 1000 edge_3_5_0_0 <= 0
 inactive_no_flow_3_6_0_0: flow_3_6_0_0 - 1000 edge_3_6_0_0 <= 0
 inactive_no_flow_3_7_0_0: flow_3_7_0_0 - 1000 edge_3_7_0_0 <= 0
 inactive_no_flow_3_8_0_0: flow_3_8_0_0 - 1000 edge_3_8_0_0 <= 0
 inactive_no_flow_3_9_0_0: flow_3_9_0_0 - 1000 edge_3_9_0_0 <= 0
 inactive_no_flow_3_10_0_0: flow_3_10_0_0 - 1000 edge_3_10_0_0 <= 0
 inactive_no_flow_3_11_0_0: flow_3_11_0_0 - 1000 edge_3_11_0_0 <= 0
 inactive_no_flow_3_12_0_0: flow_3_12_0_0 - 1000 edge_3_12_0_0 <= 0
 inactive_no_flow_3_14_0_0: flow_3_14_0_0 - 1000 edge_3_14_0_0 <= 0
 inactive_no_flow_3_15_0_0: flow_3_15_0_0 - 1000 edge_3_15_0_0 <= 0
 inactive_no_flow_3_16_0_0: flow_3_16_0_0 - 1000 edge_3_16_0_0 <= 0
 inactive_no_flow_3_17_0_0: flow_3_17_0_0 - 1000 edge_3_17_0_0 <= 0
 inactive_no_flow_3_18_0_0: flow_3_18_0_0 - 1000 edge_3_18_0_0 <= 0
 inactive_no_flow_3_19_0_0: flow_3_19_0_0 - 1000 edge_3_19_0_0 <= 0
 inactive_no_flow_3_20_0_0: flow_3_20_0_0 - 1000 edge_3_20_0_0 <= 0
 inactive_no_flow_3_21_0_0: flow_3_21_0_0 - 1000 edge_3_21_0_0 <= 0
 inactive_no_flow_3_22_0_0: flow_3_22_0_0 - 1000 edge_3_22_0_0 <= 0
 inactive_no_flow_3_23_0_0: flow_3_23_0_0 - 1000 edge_3_23_0_0 <= 0
 inactive_no_flow_4_2_0_0: flow_4_2_0_0 - 1000 edge_4_2_0_0 <= 0
 inactive_no_flow_4_3_0_0: flow_4_3_0_0 - 1000 edge_4_3_0_0 <= 0
 inactive_no_flow_4_5_0_0: flow_4_5_0_0 - 1000 edge_4_5_0_0 <= 0
 inactive_no_flow_4_6_0_0: flow_4_6_0_0 - 1000 edge_4_6_0_0 <= 0
 inactive_no_flow_4_7_0_0: flow_4_7_0_0 - 1000 edge_4_7_0_0 <= 0
 inactive_no_flow_4_8_0_0: flow_4_8_0_0 - 1000 edge_4_8_0_0 <= 0
 inactive_no_flow_4_9_0_0: flow_4_9_0_0 - 1000 edge_4_9_0_0 <= 0
 inactive_no_flow_4_10_0_0: flow_4_10_0_0 - 1000 edge_4_10_0_0 <= 0
 inactive_no_flow_4_11_0_0: flow_4_11_0_0 - 1000 edge_4_11_0_0 <= 0
 inactive_no_flow_4_13_0_0: flow_4_13_0_0 - 1000 edge_4_13_0_0 <= 0
 inactive_no_flow_4_15_0_0: flow_4_15_0_0 - 1000 edge_4_15_0_0 <= 0
 inactive_no_flow_4_16_0_0: flow_4_16_0_0 - 1000 edge_4_16_0_0 <= 0
 inactive_no_flow_4_17_0_0: flow_4_17_0_0 - 1000 edge_4_17_0_0 <= 0
 inactive_no_flow_4_18_0_0: flow_4_18_0_0 - 1000 edge_4_18_0_0 <= 0
 inactive_no_flow_4_20_0_0: flow_4_20_0_0 - 1000 edge_4_20_0_0 <= 0
 inactive_no_flow_4_21_0_0: flow_4_21_0_0 - 1000 edge_4_21_0_0 <= 0
 inactive_no_flow_4_22_0_0: flow_4_22_0_0 - 1000 edge_4_22_0_0 <= 0
 inactive_no_flow_4_23_0_0: flow_4_23_0_0 - 1000 edge_4_23_0_0 <= 0
 inactive_no_flow_5_6_0_0: flow_5_6_0_0 - 1000 edge_5_6_0_0 <= 0
 inactive_no_flow_6_5_0_0: flow_6_5_0_0 - 1000 edge_6_5_0_0 <= 0
 inactive_no_flow_6_7_0_0: flow_6_7_0_0 - 1000 edge_6_7_0_0 <= 0
 inactive_no_flow_6_9_0_0: flow_6_9_0_0 - 1000 edge_6_9_0_0 <= 0
 inactive_no_flow_7_2_0_0: flow_7_2_0_0 - 1000 edge_7_2_0_0 <= 0
 inactive_no_flow_7_3_0_0: flow_7_3_0_0 - 1000 edge_7_3_0_0 <= 0
 inactive_no_flow_7_4_0_0: flow_7_4_0_0 - 1000 edge_7_4_0_0 <= 0
 inactive_no_flow_7_5_0_0: flow_7_5_0_0 - 1000 edge_7_5_0_0 <= 0
 inactive_no_flow_7_6_0_0: flow_7_6_0_0 - 1000 edge_7_6_0_0 <= 0
 inactive_no_flow_7_8_0_0: flow_7_8_0_0 - 1000 edge_7_8_0_0 <= 0
 inactive_no_flow_7_9_0_0: flow_7_9_0_0 - 1000 edge_7_9_0_0 <= 0
 inactive_no_flow_7_10_0_0: flow_7_10_0_0 - 1000 edge_7_10_0_0 <= 0
 inactive_no_flow_7_11_0_0: flow_7_11_0_0 - 1000 edge_7_11_0_0 <= 0
 inactive_no_flow_7_12_0_0: flow_7_12_0_0 - 1000 edge_7_12_0_0 <= 0
 inactive_no_flow_7_14_0_0: flow_7_14_0_0 - 1000 edge_7_14_0_0 <= 0
 inactive_no_flow_7_15_0_0: flow_7_15_0_0 - 1000 edge_7_15_0_0 <= 0
 inactive_no_flow_7_16_0_0: flow_7_16_0_0 - 1000 edge_7_16_0_0 <= 0
 inactive_no_flow_7_17_0_0: flow_7_17_0_0 - 1000 edge_7_17_0_0 <= 0
 inactive_no_flow_7_18_0_0: flow_7_18_0_0 - 1000 edge_7_18_0_0 <= 0
 inactive_no_flow_7_20_0_0: flow_7_20_0_0 - 1000 edge_7_20_0_0 <= 0
 inactive_no_flow_7_21_0_0: flow_7_21_0_0 - 1000 edge_7_21_0_0 <= 0
 inactive_no_flow_7_22_0_0: flow_7_22_0_0 - 1000 edge_7_22_0_0 <= 0
 inactive_no_flow_7_23_0_0: flow_7_23_0_0 - 1000 edge_7_23_0_0 <= 0
 inactive_no_flow_8_7_0_0: flow_8_7_0_0 - 1000 edge_8_7_0_0 <= 0
 inactive_no_flow_8_9_0_0: flow_8_9_0_0 - 1000 edge_8_9_0_0 <= 0
 inactive_no_flow_8_10_0_0: flow_8_10_0_0 - 1000 edge_8_10_0_0 <= 0
 inactive_no_flow_8_11_0_0: flow_8_11_0_0 - 1000 edge_8_11_0_0 <= 0
 inactive_no_flow_9_6_0_0: flow_9_6_0_0 - 1000 edge_9_6_0_0 <= 0
 inactive_no_flow_9_7_0_0: flow_9_7_0_0 - 1000 edge_9_7_0_0 <= 0
 inactive_no_flow_9_8_0_0: flow_9_8_0_0 - 1000 edge_9_8_0_0 <= 0
 inactive_no_flow_9_10_0_0: flow_9_10_0_0 - 1000 edge_9_10_0_0 <= 0
 inactive_no_flow_9_11_0_0: flow_9_11_0_0 - 1000 edge_9_11_0_0 <= 0
 inactive_no_flow_9_12_0_0: flow_9_12_0_0 - 1000 edge_9_12_0_0 <= 0
 inactive_no_flow_9_13_0_0: flow_9_13_0_0 - 1000 edge_9_13_0_0 <= 0
 inactive_no_flow_9_14_0_0: flow_9_14_0_0 - 1000 edge_9_14_0_0 <= 0
 inactive_no_flow_9_15_0_0: flow_9_15_0_0 - 1000 edge_9_15_0_0 <= 0
 inactive_no_flow_9_16_0_0: flow_9_16_0_0 - 1000 edge_9_16_0_0 <= 0
 inactive_no_flow_9_17_0_0: flow_9_17_0_0 - 1000 edge_9_17_0_0 <= 0
 inactive_no_flow_9_18_0_0: flow_9_18_0_0 - 1000 edge_9_18_0_0 <= 0
 inactive_no_flow_9_19_0_0: flow_9_19_0_0 - 1000 edge_9_19_0_0 <= 0
 inactive_no_flow_9_20_0_0: flow_9_20_0_0 - 1000 edge_9_20_0_0 <= 0
 inactive_no_flow_9_21_0_0: flow_9_21_0_0 - 1000 edge_9_21_0_0 <= 0
 inactive_no_flow_9_22_0_0: flow_9_22_0_0 - 1000 edge_9_22_0_0 <= 0
 inactive_no_flow_9_23_0_0: flow_9_23_0_0 - 1000 edge_9_23_0_0 <= 0
 inactive_no_flow_10_2_0_0: flow_10_2_0_0 - 1000 edge_10_2_0_0 <= 0
 inactive_no_flow_10_3_0_0: flow_10_3_0_0 - 1000 edge_10_3_0_0 <= 0
 inactive_no_flow_10_4_0_0: flow_10_4_0_0 - 1000 edge_10_4_0_0 <= 0
 inactive_no_flow_10_5_0_0: flow_10_5_0_0 - 1000 edge_10_5_0_0 <= 0
 inactive_no_flow_10_6_0_0: flow_10_6_0_0 - 1000 edge_10_6_0_0 <= 0
 inactive_no_flow_10_8_0_0: flow_10_8_0_0 - 1000 edge_10_8_0_0 <= 0
 inactive_no_flow_10_9_0_0: flow_10_9_0_0 - 1000 edge_10_9_0_0 <= 0
 inactive_no_flow_10_11_0_0: flow_10_11_0_0 - 1000 edge_10_11_0_0 <= 0
 inactive_no_flow_10_12_0_0: flow_10_12_0_0 - 1000 edge_10_12_0_0 <= 0
 inactive_no_flow_10_16_0_0: flow_10_16_0_0 - 1000 edge_10_16_0_0 <= 0
 inactive_no_flow_11_2_0_0: flow_11_2_0_0 - 1000 edge_11_2_0_0 <= 0
 inactive_no_flow_11_3_0_0: flow_11_3_0_0 - 1000 edge_11_3_0_0 <= 0
 inactive_no_flow_11_4_0_0: flow_11_4_0_0 - 1000 edge_11_4_0_0 <= 0
 inactive_no_flow_11_5_0_0: flow_11_5_0_0 - 1000 edge_11_5_0_0 <= 0
 inactive_no_flow_11_6_0_0: flow_11_6_0_0 - 1000 edge_11_6_0_0 <= 0
 inactive_no_flow_11_7_0_0: flow_11_7_0_0 - 1000 edge_11_7_0_0 <= 0
 inactive_no_flow_11_8_0_0: flow_11_8_0_0 - 1000 edge_11_8_0_0 <= 0
 inactive_no_flow_11_9_0_0: flow_11_9_0_0 - 1000 edge_11_9_0_0 <= 0
 inactive_no_flow_11_10_0_0: flow_11_10_0_0 - 1000 edge_11_10_0_0 <= 0
 inactive_no_flow_11_12_0_0: flow_11_12_0_0 - 1000 edge_11_12_0_0 <= 0
 inactive_no_flow_11_13_0_0: flow_11_13_0_0 - 1000 edge_11_13_0_0 <= 0
 inactive_no_flow_11_14_0_0: flow_11_14_0_0 - 1000 edge_11_14_0_0 <= 0
 inactive_no_flow_11_15_0_0: flow_11_15_0_0 - 1000 edge_11_15_0_0 <= 0
 inactive_no_flow_11_16_0_0: flow_11_16_0_0 - 1000 edge_11_16_0_0 <= 0
 inactive_no_flow_11_17_0_0: flow_11_17_0_0 - 1000 edge_11_17_0_0 <= 0
 inactive_no_flow_11_18_0_0: flow_11_18_0_0 - 1000 edge_11_18_0_0 <= 0
 inactive_no_flow_11_20_0_0: flow_11_20_0_0 - 1000 edge_11_20_0_0 <= 0
 inactive_no_flow_11_21_0_0: flow_11_21_0_0 - 1000 edge_11_21_0_0 <= 0
 inactive_no_flow_11_22_0_0: flow_11_22_0_0 - 1000 edge_11_22_0_0 <= 0
 inactive_no_flow_11_23_0_0: flow_11_23_0_0 - 1000 edge_11_23_0_0 <= 0
 inactive_no_flow_12_13_0_0: flow_12_13_0_0 - 1000 edge_12_13_0_0 <= 0
 inactive_no_flow_12_14_0_0: flow_12_14_0_0 - 1000 edge_12_14_0_0 <= 0
 inactive_no_flow_12_15_0_0: flow_12_15_0_0 - 1000 edge_12_15_0_0 <= 0
 inactive_no_flow_12_16_0_0: flow_12_16_0_0 - 1000 edge_12_16_0_0 <= 0
 inactive_no_flow_12_18_0_0: flow_12_18_0_0 - 1000 edge_12_18_0_0 <= 0
 inactive_no_flow_13_12_0_0: flow_13_12_0_0 - 1000 edge_13_12_0_0 <= 0
 inactive_no_flow_13_14_0_0: flow_13_14_0_0 - 1000 edge_13_14_0_0 <= 0
 inactive_no_flow_14_12_0_0: flow_14_12_0_0 - 1000 edge_14_12_0_0 <= 0
 inactive_no_flow_14_13_0_0: flow_14_13_0_0 - 1000 edge_14_13_0_0 <= 0
 inactive_no_flow_14_15_0_0: flow_14_15_0_0 - 1000 edge_14_15_0_0 <= 0
 inactive_no_flow_14_16_0_0: flow_14_16_0_0 - 1000 edge_14_16_0_0 <= 0
 inactive_no_flow_14_17_0_0: flow_14_17_0_0 - 1000 edge_14_17_0_0 <= 0
 inactive_no_flow_14_18_0_0: flow_14_18_0_0 - 1000 edge_14_18_0_0 <= 0
 inactive_no_flow_15_2_0_0: flow_15_2_0_0 - 1000 edge_15_2_0_0 <= 0
 inactive_no_flow_15_3_0_0: flow_15_3_0_0 - 1000 edge_15_3_0_0 <= 0
 inactive_no_flow_15_4_0_0: flow_15_4_0_0 - 1000 edge_15_4_0_0 <= 0
 inactive_no_flow_15_5_0_0: flow_15_5_0_0 - 1000 edge_15_5_0_0 <= 0
 inactive_no_flow_15_6_0_0: flow_15_6_0_0 - 1000 edge_15_6_0_0 <= 0
 inactive_no_flow_15_7_0_0: flow_15_7_0_0 - 1000 edge_15_7_0_0 <= 0
 inactive_no_flow_15_8_0_0: flow_15_8_0_0 - 1000 edge_15_8_0_0 <= 0
 inactive_no_flow_15_9_0_0: flow_15_9_0_0 - 1000 edge_15_9_0_0 <= 0
 inactive_no_flow_15_10_0_0: flow_15_10_0_0 - 1000 edge_15_10_0_0 <= 0
 inactive_no_flow_15_11_0_0: flow_15_11_0_0 - 1000 edge_15_11_0_0 <= 0
 inactive_no_flow_15_12_0_0: flow_15_12_0_0 - 1000 edge_15_12_0_0 <= 0
 inactive_no_flow_15_13_0_0: flow_15_13_0_0 - 1000 edge_15_13_0_0 <= 0
 inactive_no_flow_15_14_0_0: flow_15_14_0_0 - 1000 edge_15_14_0_0 <= 0
 inactive_no_flow_15_16_0_0: flow_15_16_0_0 - 1000 edge_15_16_0_0 <= 0
 inactive_no_flow_15_17_0_0: flow_15_17_0_0 - 1000 edge_15_17_0_0 <= 0
 inactive_no_flow_15_18_0_0: flow_15_18_0_0 - 1000 edge_15_18_0_0 <= 0
 inactive_no_flow_15_19_0_0: flow_15_19_0_0 - 1000 edge_15_19_0_0 <= 0
 inactive_no_flow_15_20_0_0: flow_15_20_0_0 - 1000 edge_15_20_0_0 <= 0
 inactive_no_flow_15_21_0_0: flow_15_21_0_0 - 1000 edge_15_21_0_0 <= 0
 inactive_no_flow_15_22_0_0: flow_15_22_0_0 - 1000 edge_15_22_0_0 <= 0
 inactive_no_flow_15_23_0_0: flow_15_23_0_0 - 1000 edge_15_23_0_0 <= 0
 inactive_no_flow_16_2_0_0: flow_16_2_0_0 - 1000 edge_16_2_0_0 <= 0
 inactive_no_flow_16_3_0_0: flow_16_3_0_0 - 1000 edge_16_3_0_0 <= 0
 inactive_no_flow_16_4_0_0: flow_16_4_0_0 - 1000 edge_16_4_0_0 <= 0
 inactive_no_flow_16_5_0_0: flow_16_5_0_0 - 1000 edge_16_5_0_0 <= 0
 inactive_no_flow_16_7_0_0: flow_16_7_0_0 - 1000 edge_16_7_0_0 <= 0
 inactive_no_flow_16_8_0_0: flow_16_8_0_0 - 1000 edge_16_8_0_0 <= 0
 inactive_no_flow_16_9_0_0: flow_16_9_0_0 - 1000 edge_16_9_0_0 <= 0
 inactive_no_flow_16_10_0_0: flow_16_10_0_0 - 1000 edge_16_10_0_0 <= 0
 inactive_no_flow_16_11_0_0: flow_16_11_0_0 - 1000 edge_16_11_0_0 <= 0
 inactive_no_flow_16_12_0_0: flow_16_12_0_0 - 1000 edge_16_12_0_0 <= 0
 inactive_no_flow_16_13_0_0: flow_16_13_0_0 - 1000 edge_16_13_0_0 <= 0
 inactive_no_flow_16_14_0_0: flow_16_14_0_0 - 1000 edge_16_14_0_0 <= 0
 inactive_no_flow_16_15_0_0: flow_16_15_0_0 - 1000 edge_16_15_0_0 <= 0
 inactive_no_flow_16_17_0_0: flow_16_17_0_0 - 1000 edge_16_17_0_0 <= 0
 inactive_no_flow_16_18_0_0: flow_16_18_0_0 - 1000 edge_16_18_0_0 <= 0
 inactive_no_flow_16_19_0_0: flow_16_19_0_0 - 1000 edge_16_19_0_0 <= 0
 inactive_no_flow_16_20_0_0: flow_16_20_0_0 - 1000 edge_16_20_0_0 <= 0
 inactive_no_flow_16_21_0_0: flow_16_21_0_0 - 1000 edge_16_21_0_0 <= 0
 inactive_no_flow_16_22_0_0: flow_16_22_0_0 - 1000 edge_16_22_0_0 <= 0
 inactive_no_flow_16_23_0_0: flow_16_23_0_0 - 1000 edge_16_23_0_0 <= 0
 inactive_no_flow_18_2_0_0: flow_18_2_0_0 - 1000 edge_18_2_0_0 <= 0
 inactive_no_flow_18_3_0_0: flow_18_3_0_0 - 1000 edge_18_3_0_0 <= 0
 inactive_no_flow_18_4_0_0: flow_18_4_0_0 - 1000 edge_18_4_0_0 <= 0
 inactive_no_flow_18_5_0_0: flow_18_5_0_0 - 1000 edge_18_5_0_0 <= 0
 inactive_no_flow_18_8_0_0: flow_18_8_0_0 - 1000 edge_18_8_0_0 <= 0
 inactive_no_flow_18_10_0_0: flow_18_10_0_0 - 1000 edge_18_10_0_0 <= 0
 inactive_no_flow_18_12_0_0: flow_18_12_0_0 - 1000 edge_18_12_0_0 <= 0
 inactive_no_flow_18_13_0_0: flow_18_13_0_0 - 1000 edge_18_13_0_0 <= 0
 inactive_no_flow_18_14_0_0: flow_18_14_0_0 - 1000 edge_18_14_0_0 <= 0
 inactive_no_flow_18_15_0_0: flow_18_15_0_0 - 1000 edge_18_15_0_0 <= 0
 inactive_no_flow_18_17_0_0: flow_18_17_0_0 - 1000 edge_18_17_0_0 <= 0
 inactive_no_flow_18_19_0_0: flow_18_19_0_0 - 1000 edge_18_19_0_0 <= 0
 inactive_no_flow_18_20_0_0: flow_18_20_0_0 - 1000 edge_18_20_0_0 <= 0
 inactive_no_flow_18_21_0_0: flow_18_21_0_0 - 1000 edge_18_21_0_0 <= 0
 inactive_no_flow_18_22_0_0: flow_18_22_0_0 - 1000 edge_18_22_0_0 <= 0
 inactive_no_flow_18_23_0_0: flow_18_23_0_0 - 1000 edge_18_23_0_0 <= 0
 inactive_no_flow_19_21_0_0: flow_19_21_0_0 - 1000 edge_19_21_0_0 <= 0
 inactive_no_flow_19_22_0_0: flow_19_22_0_0 - 1000 edge_19_22_0_0 <= 0
 inactive_no_flow_20_14_0_0: flow_20_14_0_0 - 1000 edge_20_14_0_0 <= 0
 inactive_no_flow_20_17_0_0: flow_20_17_0_0 - 1000 edge_20_17_0_0 <= 0
 inactive_no_flow_20_18_0_0: flow_20_18_0_0 - 1000 edge_20_18_0_0 <= 0
 inactive_no_flow_20_19_0_0: flow_20_19_0_0 - 1000 edge_20_19_0_0 <= 0
 inactive_no_flow_20_21_0_0: flow_20_21_0_0 - 1000 edge_20_21_0_0 <= 0
 inactive_no_flow_20_22_0_0: flow_20_22_0_0 - 1000 edge_20_22_0_0 <= 0
 inactive_no_flow_20_23_0_0: flow_20_23_0_0 - 1000 edge_20_23_0_0 <= 0
 inactive_no_flow_21_19_0_0: flow_21_19_0_0 - 1000 edge_21_19_0_0 <= 0
 inactive_no_flow_21_20_0_0: flow_21_20_0_0 - 1000 edge_21_20_0_0 <= 0
 inactive_no_flow_22_2_0_0: flow_22_2_0_0 - 1000 edge_22_2_0_0 <= 0
 inactive_no_flow_22_3_0_0: flow_22_3_0_0 - 1000 edge_22_3_0_0 <= 0
 inactive_no_flow_22_4_0_0: flow_22_4_0_0 - 1000 edge_22_4_0_0 <= 0
 inactive_no_flow_22_19_0_0: flow_22_19_0_0 - 1000 edge_22_19_0_0 <= 0
 inactive_no_flow_22_20_0_0: flow_22_20_0_0 - 1000 edge_22_20_0_0 <= 0
 inactive_no_flow_22_23_0_0: flow_22_23_0_0 - 1000 edge_22_23_0_0 <= 0
Bounds
Binaries
 edge_0_2_0_0 edge_0_3_0_0 edge_0_4_0_0 edge_0_7_0_0 edge_0_9_0_0
 edge_0_10_0_0 edge_0_11_0_0 edge_0_15_0_0 edge_0_16_0_0 edge_2_3_0_0
 edge_2_4_0_0 edge_2_5_0_0 edge_2_6_0_0 edge_2_7_0_0 edge_2_8_0_0
 edge_2_11_0_0 edge_3_2_0_0 edge_3_4_0_0 edge_3_5_0_0 edge_3_6_0_0
 edge_3_7_0_0 edge_3_8_0_0 edge_3_9_0_0 edge_3_10_0_0 edge_3_11_0_0
 edge_3_12_0_0 edge_3_14_0_0 edge_3_15_0_0 edge_3_16_0_0 edge_3_17_0_0
 edge_3_18_0_0 edge_3_19_0_0 edge_3_20_0_0 edge_3_21_0_0 edge_3_22_0_0
 edge_3_23_0_0 edge_4_2_0_0 edge_4_3_0_0 edge_4_5_0_0 edge_4_6_0_0
 edge_4_7_0_0 edge_4_8_0_0 edge_4_9_0_0 edge_4_10_0_0 edge_4_11_0_0
 edge_4_13_0_0 edge_4_15_0_0 edge_4_16_0_0 edge_4_17_0_0 edge_4_18_0_0
 edge_4_20_0_0 edge_4_21_0_0 edge_4_22_0_0 edge_4_23_0_0 edge_5_6_0_0
 edge_6_5_0_0 edge_6_7_0_0 edge_6_9_0_0 edge_7_2_0_0 edge_7_3_0_0
 edge_7_4_0_0 edge_7_5_0_0 edge_7_6_0_0 edge_7_8_0_0 edge_7_9_0_0
 edge_7_10_0_0 edge_7_11_0_0 edge_7_12_0_0 edge_7_14_0_0 edge_7_15_0_0
 edge_7_16_0_0 edge_7_17_0_0 edge_7_18_0_0 edge_7_20_0_0 edge_7_21_0_0
 edge_7_22_0_0 edge_7_23_0_0 edge_8_7_0_0 edge_8_9_0_0 edge_8_10_0_0
 edge_8_11_0_0 edge_9_6_0_0 edge_9_7_0_0 edge_9_8_0_0 edge_9_10_0_0
 edge_9_11_0_0 edge_9_12_0_0 edge_9_13_0_0 edge_9_14_0_0 edge_9_15_0_0
 edge_9_16_0_0 edge_9_17_0_0 edge_9_18_0_0 edge_9_19_0_0 edge_9_20_0_0
 edge_9_21_0_0 edge_9_22_0_0 edge_9_23_0_0 edge_10_2_0_0 edge_10_3_0_0
 edge_10_4_0_0 edge_10_5_0_0 edge_10_6_0_0 edge_10_8_0_0 edge_10_9_0_0
 edge_10_11_0_0 edge_10_12_0_0 edge_10_16_0_0 edge_11_2_0_0 edge_11_3_0_0
 edge_11_4_0_0 edge_11_5_0_0 edge_11_6_0_0 edge_11_7_0_0 edge_11_8_0_0
 edge_11_9_0_0 edge_11_10_0_0 edge_11_12_0_0 edge_11_13_0_0 edge_11_14_0_0
 edge_11_15_0_0 edge_11_16_0_0 edge_11_17_0_0 edge_11_18_0_0 edge_11_20_0_0
 edge_11_21_0_0 edge_11_22_0_0 edge_11_23_0_0 edge_12_13_0_0 edge_12_14_0_0
 edge_12_15_0_0 edge_12_16_0_0 edge_12_18_0_0 edge_13_12_0_0 edge_13_14_0_0
 edge_14_12_0_0 edge_14_13_0_0 edge_14_15_0_0 edge_14_16_0_0 edge_14_17_0_0
 edge_14_18_0_0 edge_15_2_0_0 edge_15_3_0_0 edge_15_4_0_0 edge_15_5_0_0
 edge_15_6_0_0 edge_15_7_0_0 edge_15_8_0_0 edge_15_9_0_0 edge_15_10_0_0
 edge_15_11_0_0 edge_15_12_0_0 edge_15_13_0_0 edge_15_14_0_0 edge_15_16_0_0
 edge_15_17_0_0 edge_15_18_0_0 edge_15_19_0_0 edge_15_20_0_0 edge_15_21_0_0
 edge_15_22_0_0 edge_15_23_0_0 edge_16_2_0_0 edge_16_3_0_0 edge_16_4_0_0
 edge_16_5_0_0 edge_16_7_0_0 edge_16_8_0_0 edge_16_9_0_0 edge_16_10_0_0
 edge_16_11_0_0 edge_16_12_0_0 edge_16_13_0_0 edge_16_14_0_0 edge_16_15_0_0
 edge_16_17_0_0 edge_16_18_0_0 edge_16_19_0_0 edge_16_20_0_0 edge_16_21_0_0
 edge_16_22_0_0 edge_16_23_0_0 edge_18_2_0_0 edge_18_3_0_0 edge_18_4_0_0
 edge_18_5_0_0 edge_18_8_0_0 edge_18_10_0_0 edge_18_12_0_0 edge_18_13_0_0
 edge_18_14_0_0 edge_18_15_0_0 edge_18_17_0_0 edge_18_19_0_0 edge_18_20_0_0
 edge_18_21_0_0 edge_18_22_0_0 edge_18_23_0_0 edge_19_21_0_0 edge_19_22_0_0
 edge_20_14_0_0 edge_20_17_0_0 edge_20_18_0_0 edge_20_19_0_0 edge_20_21_0_0
 edge_20_22_0_0 edge_20_23_0_0 edge_21_19_0_0 edge_21_20_0_0 edge_22_2_0_0
 edge_22_3_0_0 edge_22_4_0_0 edge_22_19_0_0 edge_22_20_0_0 edge_22_23_0_0
End
